n_res = 4;
rc = [ 17, 3, 17, 22 ];
n_tasks = 30;
d = [ 2, 10, 10, 6, 10, 6, 1, 5, 2, 7, 5, 7, 6, 8, 5, 10, 8, 6, 5, 9, 9, 2, 4, 3, 5, 4, 10, 3, 5, 3 ];
rr = [| 0, 0, 0, 0, 0, 0, 0, 0, 0, 2, 0, 0, 0, 0, 5, 0, 0, 0, 10, 0, 7, 4, 0, 0, 0, 0, 0, 0, 0, 3
      | 0, 3, 0, 2, 0, 0, 0, 0, 0, 0, 0, 0, 0, 0, 0, 0, 0, 3, 0, 0, 0, 0, 0, 0, 0, 0, 0, 0, 0, 0
      | 0, 0, 6, 0, 0, 0, 8, 8, 0, 0, 4, 5, 9, 0, 0, 0, 8, 0, 0, 0, 0, 0, 6, 0, 0, 0, 1, 5, 0, 0
      | 8, 0, 0, 0, 9, 10, 0, 0, 10, 0, 0, 0, 0, 10, 0, 4, 0, 0, 0, 8, 0, 0, 0, 6, 3, 8, 0, 0, 4, 0 |];
suc = [ { 2 }, 
        { 3 }, 
        { 4 }, 
        { 5 }, 
        { 6 }, 
        { 7 }, 
        { 8 }, 
        { 9 }, 
        { 10 }, 
        { 11 }, 
        { 12 }, 
        { 13 }, 
        { 14 }, 
        { 15 }, 
        { 16 }, 
        { 17 }, 
        { 18 }, 
        { 19 }, 
        { 20 }, 
        { 21 }, 
        { 22 }, 
        { 23 }, 
        { 24 }, 
        { 25 }, 
        { 26 }, 
        { 27 }, 
        { 28 }, 
        { 29 }, 
        { 30 }, 
        {  }]; 
